NAME = file175,
TOURSIZE = 175,
LENGTH = 22550,
35,36,5,6,7,8,9,10,1,2,3,22,63,65,24,18,17,16,15,14,13,12,11,50,51,49,83,45,46,47,48,84,100,101,102,152,163,164,153,165,117,166,154,110,111,149,150,151,118,175,120,134,122,123,124,125,126,127,128,129,130,131,162,159,114,113,160,112,174,173,172,168,171,170,169,141,142,139,138,137,136,135,143,144,145,146,140,121,133,132,167,155,161,156,116,157,115,158,85,99,37,39,40,41,42,82,43,44,97,98,86,87,88,62,64,66,68,69,70,73,74,75,76,77,28,29,4,27,26,25,23,21,20,19,53,52,54,55,57,56,58,59,61,60,91,92,107,93,109,95,94,108,71,72,67,30,32,119,31,106,105,90,104,89,103,148,147,81,38,80,96,78,79,33,34